NAME : 60_5_02.57362.tour
COMMENT : Cost = 0_57362
COMMENT : Found by LKH [Keld Helsgaun] Thu Sep 14 11:13:08 2017
TYPE : TOUR
DIMENSION : 65
TOUR_SECTION
1
3
65
9
48
12
14
2
5
42
62
7
56
54
46
27
28
17
21
18
20
19
15
44
25
24
49
22
23
26
55
11
57
47
64
43
38
40
34
36
31
32
33
37
29
35
30
51
50
53
52
39
16
63
6
4
10
8
60
13
59
58
45
61
41
-1
EOF
